NAME: PointSet_Angle_40_10
TYPE: TSP
COMMENT: Points chosen discrete uniformly at random out of ${0, \ldots, 500}^2$.
DIMENSION: 40
EDGE_WEIGHT_TYPE: EUC_2D
NODE_COORD_SECTION
1 229 450
2 8 212
3 241 104
4 67 485
5 219 438
6 448 43
7 289 147
8 348 412
9 92 28
10 214 496
11 448 62
12 49 208
13 295 331
14 221 441
15 122 146
16 264 97
17 342 18
18 309 82
19 370 376
20 313 88
21 59 260
22 131 348
23 407 226
24 6 246
25 254 467
26 241 201
27 28 36
28 409 69
29 113 376
30 9 235
31 268 19
32 332 109
33 37 387
34 438 407
35 262 250
36 242 68
37 256 119
38 162 162
39 345 168
40 408 98
EOF
